NAME: clu_20_9
TYPE: TSP
DIMENSION: 20
EDGE_WEIGHT_TYPE: EUC_2D
NODE_COORD_SECTION
1 22 45
2 50 47
3 49 81
4 88 26
5 45 60
6 98 14
7 53 54
8 25 68
9 35 78
10 72 36
11 97 39
12 52 46
13 49 72
14 47 71
15 114 25
16 25 71
17 69 41
18 105 32
19 22 70
20 29 61
EOF
